cliques=[{0,14,16,34,36,58,61,63,64,69},{1,15,17,35,37,59,60,62,65,68},{2,6,20,24,26,28,42,56,62,76,77,80,97,133},{3,7,21,25,27,29,43,57,63,78,79,81,98},{4,7,22,44,49,50,52,86,118},{5,6,23,45,48,51,53,117,119},{2,6,20,24,26,28,42,56,62,76,77,80,97,133},{3,7,21,25,27,29,43,57,63,78,79,81,98},{2,8,10,40,47,54,70,72,122},{0,9,22,24,33,87,99,108,112,111,125},{2,8,10,40,47,54,70,72,122},{3,9,11,41,46,55,71,73},{12,18,31,38,66,75,76,126},{13,19,30,39,67,74,78},{0,14,16,34,36,58,61,63,64,69},{1,15,17,35,37,59,60,62,65,68},{0,14,16,34,36,58,61,63,64,69},{1,15,17,35,37,59,60,62,65,68},{12,18,31,38,66,75,76,126},{13,19,30,39,67,74,78},{2,6,20,24,26,28,42,56,62,76,77,80,97,133},{3,7,21,25,27,29,43,57,63,78,79,81,98},{0,9,22,24,33,87,99,108,112,111,125},{1,8,23,25,32,88,100,107,113,114},{2,6,20,24,26,28,42,56,62,76,77,80,97,133},{3,7,21,25,27,29,43,57,63,78,79,81,98},{2,6,20,24,26,28,42,56,62,76,77,80,97,133},{3,7,21,25,27,29,43,57,63,78,79,81,98},{2,6,20,24,26,28,42,56,62,76,77,80,97,133},{3,7,21,25,27,29,43,57,63,78,79,81,98},{4,26,30,32,36,84,93,103,105,115,129,134},{5,27,31,33,37,85,96,104,106,116},{1,8,23,25,32,88,100,107,113,114},{0,9,22,24,33,87,99,108,112,111,125},{0,14,16,34,36,58,61,63,64,69},{1,15,17,35,37,59,60,62,65,68},{0,14,16,34,36,58,61,63,64,69},{1,15,17,35,37,59,60,62,65,68},{12,18,31,38,66,75,76,126},{13,19,30,39,67,74,78},{2,8,10,40,47,54,70,72,122},{3,9,11,41,46,55,71,73},{2,6,20,24,26,28,42,56,62,76,77,80,97,133},{3,7,21,25,27,29,43,57,63,78,79,81,98},{4,7,22,44,49,50,52,86,118},{5,6,23,45,48,51,53,117,119},{3,9,11,41,46,55,71,73},{2,8,10,40,47,54,70,72,122},{5,6,23,45,48,51,53,117,119},{4,7,22,44,49,50,52,86,118},{4,7,22,44,49,50,52,86,118},{5,6,23,45,48,51,53,117,119},{4,7,22,44,49,50,52,86,118},{5,6,23,45,48,51,53,117,119},{2,8,10,40,47,54,70,72,122},{3,9,11,41,46,55,71,73},{2,6,20,24,26,28,42,56,62,76,77,80,97,133},{3,7,21,25,27,29,43,57,63,78,79,81,98},{0,14,16,34,36,58,61,63,64,69},{1,15,17,35,37,59,60,62,65,68},{1,15,17,35,37,59,60,62,65,68},{0,14,16,34,36,58,61,63,64,69},{2,6,20,24,26,28,42,56,62,76,77,80,97,133},{3,7,21,25,27,29,43,57,63,78,79,81,98},{0,14,16,34,36,58,61,63,64,69},{1,15,17,35,37,59,60,62,65,68},{12,18,31,38,66,75,76,126},{13,19,30,39,67,74,78},{1,15,17,35,37,59,60,62,65,68},{0,14,16,34,36,58,61,63,64,69},{2,8,10,40,47,54,70,72,122},{3,9,11,41,46,55,71,73},{2,8,10,40,47,54,70,72,122},{3,9,11,41,46,55,71,73},{13,19,30,39,67,74,78},{12,18,31,38,66,75,76,126},{2,6,20,24,26,28,42,56,62,76,77,80,97,133},{2,6,20,24,26,28,42,56,62,76,77,80,97,133},{3,7,21,25,27,29,43,57,63,78,79,81,98},{3,7,21,25,27,29,43,57,63,78,79,81,98},{2,6,20,24,26,28,42,56,62,76,77,80,97,133},{3,7,21,25,27,29,43,57,63,78,79,81,98},{12,48,60,72,82,98,111,123,134},{13,49,61,73,83,97,114,124},{4,26,30,32,36,84,93,103,105,115,129,134},{5,27,31,33,37,85,96,104,106,116},{4,7,22,44,49,50,52,86,118},{0,9,22,24,33,87,99,108,112,111,125},{1,8,23,25,32,88,100,107,113,114},{15,18,29,40,53,87,89,95,105,120},{14,19,28,41,52,88,90,94,106,121},{16,20,82,85,89,91,101,110,130},{17,21,83,84,90,92,102,109},{4,26,30,32,36,84,93,103,105,115,129,134},{14,19,28,41,52,88,90,94,106,121},{15,18,29,40,53,87,89,95,105,120},{5,27,31,33,37,85,96,104,106,116},{2,6,20,24,26,28,42,56,62,76,77,80,97,133},{3,7,21,25,27,29,43,57,63,78,79,81,98},{0,9,22,24,33,87,99,108,112,111,125},{1,8,23,25,32,88,100,107,113,114},{10,35,45,66,81,99,101,121,128,132},{11,34,44,67,80,100,102,120,127,131},{4,26,30,32,36,84,93,103,105,115,129,134},{5,27,31,33,37,85,96,104,106,116},{4,26,30,32,36,84,93,103,105,115,129,134},{5,27,31,33,37,85,96,104,106,116},{1,8,23,25,32,88,100,107,113,114},{0,9,22,24,33,87,99,108,112,111,125},{17,21,83,84,90,92,102,109},{16,20,82,85,89,91,101,110,130},{0,9,22,24,33,87,99,108,111,112,125},{0,9,22,24,33,87,99,108,112,111,125},{1,8,23,25,32,88,100,107,113,114},{1,8,23,25,32,88,100,107,113,114},{4,26,30,32,36,84,93,103,105,115,129,134},{5,27,31,33,37,85,96,104,106,116},{5,6,23,45,48,51,53,117,119},{4,7,22,44,49,50,52,86,118},{5,6,23,45,48,51,53,117,119},{15,18,29,40,53,87,89,95,105,120},{14,19,28,41,52,88,90,94,106,121},{2,8,10,40,47,54,70,72,122},{12,48,60,72,82,98,111,123,134},{13,49,61,73,83,97,114,124},{0,9,22,24,33,87,99,108,112,111,125},{12,18,31,38,66,75,76,126},{11,34,44,67,80,100,102,120,127,131},{10,35,45,66,81,99,101,121,128,132},{4,26,30,32,36,84,93,103,105,115,129,134},{16,20,82,85,89,91,101,110,130},{11,34,44,67,80,100,102,120,127,131},{10,35,45,66,81,99,101,121,128,132},{2,6,20,24,26,28,42,56,62,76,77,80,97,133},{4,26,30,32,36,84,93,103,105,115,129,134}];
nr_cliques=135;
